; benchmark generated from python API
(set-info :status unknown)
(define-funs-rec ( ( T2_05 ((x!1 Int)) Int)
                   ( t2_05 ((x!1 Int)) String)
                   ( rot2_05 ((x!1 String) (x!2 Int)) String)
                   ( ilog2_2_05 ((x!1 Int)) Int)
                   ( T2_04 ((x!1 Int)) Int)
                   ( t2_04 ((x!1 Int)) String)
                   ( sub2_04 ((x!1 String) (x!2 String)) String)
                   ( ilog2_2_04 ((x!1 Int)) Int))
                 ( (let ((a!1 (str.substr ((_ t2_05 0)
                                            (+ ((_ ilog2_2_05 0) x!1) 1))
                                          x!1
                                          1)))
                     (ite (= a!1 "0") 0 1))
                   (let ((a!1 (div (str.len ((_ t2_05 0) (- x!1 1))) 2)))
                   (let ((a!2 (str.++ ((_ t2_05 0) (- x!1 1))
                                      ((_ rot2_05 0)
                                        ((_ t2_05 0) (- x!1 1))
                                        a!1))))
                     (ite (= x!1 0) "0" (ite (= x!1 1) "01" a!2))))
                   (str.++ (str.substr x!1 x!2 (- (str.len x!1) x!2))
                           (str.substr x!1 0 x!2))
                   (ite (<= x!1 1) 0 (+ 1 ((_ ilog2_2_05 0) (div x!1 2))))
                   (let ((a!1 (str.substr ((_ t2_04 0)
                                            (+ ((_ ilog2_2_04 0) x!1) 1))
                                          x!1
                                          1)))
                     (ite (= a!1 "0") 0 1))
                   (ite (= x!1 0)
                        "0"
                        ((_ sub2_04 0) "" ((_ t2_04 0) (- x!1 1))))
                   (let ((a!1 (str.++ x!1
                                      (ite (= (str.substr x!2 0 1) "0")
                                           "01"
                                           "10")
                                      (str.substr x!2 1 (- (str.len x!2) 1)))))
                     (ite (= (str.len x!2) 0) x!1 a!1))
                   (ite (<= x!1 1) 0 (+ 1 ((_ ilog2_2_04 0) (div x!1 2))))))
(assert
 (forall ((n Int) )(let ((?x407 ((_ T2_05 0) n)))
(let ((?x379 ((_ T2_04 0) n)))
(let (($x358 (= ?x379 ?x407)))
(let (($x370 (>= n 0)))
(=> $x370 $x358))))))
)
(check-sat)
